100 89140

 469 156
889 650
767 85
812 182
814 476
643 654
459 146
865 186
927 205
24 239
52 227
959 396
278 654
874 439
389 776
120 720
81 127
157 49
250 878
489 80
702 149
987 23
442 629
519 583
522 987
540 887
518 411
9 372
2 297
98 153
102 139
705 133
205 115
895 241
929 307
976 962
940 579
272 988
510 373
176 458
807 325
889 183
852 144
434 946
759 987
98 45
41 151
754 424
426 187
996 364
98 130
856 457
480 272
828 352
818 95
916 429
298 984
950 329
152 877
82 844
432 953
829 791
474 660
830 857
730 76
210 463
949 990
61 770
899 963
305 780
501 875
423 707
172 761
359 524
193 925
204 826
188 844
490 674
798 305
569 36
894 936
637 587
690 299
668 150
450 830
690 837
70 815
860 646
778 367
246 305
769 9
13 834
218 88
66 631
781 505
756 527
814 927
5 32
502 774
705 53
